NAME: instance_3046
TYPE: TSP
DIMENSION: 20
EDGE_WEIGHT_TYPE: EUC_2D
NODE_COORD_SECTION
0 49.37 25.25
1 77.59 94.21
2 29.92 61.32
3 75.63 26.70
4 83.24 19.38
5 25.63 63.61
6 24.44 79.27
7 57.03 19.04
8 13.70 82.16
9 69.01 75.02
10 59.52 13.36
11 97.06 68.70
12 66.97 90.40
13 44.70 28.07
14 75.15 77.75
15 85.02 28.97
16 38.04 84.81
17 4.81 78.71
18 10.04 63.59
19 6.79 84.18
EOF
